DATASET = "thpack4";
INSTANCE = "038";

WIDTH = 233;
HEIGHT = 220;
LENGTH = 587;

NO_OF_SHAPES = 10;
size = [|
  104,94,50 |
  102,87,36 |
  115,42,33 |
  61,58,32 |
  70,62,48 |
  91,79,78 |
  90,57,53 |
  78,68,25 |
  77,44,39 |
  97,89,56 |
|];

verticality = [|
  0,1,1 |
  0,0,1 |
  0,1,1 |
  1,1,1 |
  1,1,1 |
  1,1,1 |
  1,1,1 |
  0,0,1 |
  1,1,1 |
  1,1,1 |
|];

box_count = [
  8,
  21,
  9,
  9,
  16,
  5,
  10,
  12,
  16,
  9,
];
